p cnf 338 659 
-1  2 0 
-3  2 0 
-1 -3  4 0 
 2 -4 0 
-4  5 0 
-6  5 0 
-4 -6  7 0 
 5 -7 0 
-7  8 0 
-9  8 0 
-7 -9  10 0 
 8 -10 0 
-10  11 0 
-12  11 0 
-10 -12  13 0 
 11 -13 0 
-13  14 0 
-15  14 0 
-13 -15  16 0 
 14 -16 0 
-16  17 0 
-18  17 0 
-16 -18  19 0 
 17 -19 0 
-19  20 0 
-21  20 0 
-19 -21  22 0 
 20 -22 0 
-22  23 0 
-24  23 0 
-22 -24  25 0 
 23 -25 0 
-25  26 0 
-27  26 0 
-25 -27  28 0 
 26 -28 0 
-28  29 0 
-30  29 0 
-28 -30  31 0 
 29 -31 0 
-31  32 0 
-33  32 0 
-31 -33  34 0 
 32 -34 0 
-34  35 0 
-36  35 0 
-34 -36  37 0 
 35 -37 0 
-37  38 0 
-39  38 0 
-37 -39  40 0 
 38 -40 0 
-40  41 0 
-42  41 0 
-40 -42  43 0 
 41 -43 0 
-43  44 0 
-45  44 0 
-43 -45 0 
-2  46 0 
-5  46 0 
-2 -5  47 0 
 46 -47 0 
-47  48 0 
-8  48 0 
-47 -8  49 0 
 48 -49 0 
-49  50 0 
-11  50 0 
-49 -11  51 0 
 50 -51 0 
-51  52 0 
-14  52 0 
-51 -14  53 0 
 52 -53 0 
-53  54 0 
-17  54 0 
-53 -17  55 0 
 54 -55 0 
-55  56 0 
-20  56 0 
-55 -20  57 0 
 56 -57 0 
-57  58 0 
-23  58 0 
-57 -23  59 0 
 58 -59 0 
-59  60 0 
-26  60 0 
-59 -26  61 0 
 60 -61 0 
-61  62 0 
-29  62 0 
-61 -29  63 0 
 62 -63 0 
-63  64 0 
-32  64 0 
-63 -32  65 0 
 64 -65 0 
-65  66 0 
-35  66 0 
-65 -35  67 0 
 66 -67 0 
-67  68 0 
-38  68 0 
-67 -38  69 0 
 68 -69 0 
-69  70 0 
-41  70 0 
-69 -41  71 0 
 70 -71 0 
-71  72 0 
-44  72 0 
-71 -44 0 
-46  73 0 
-48  73 0 
-46 -48  74 0 
 73 -74 0 
-74  75 0 
-50  75 0 
-74 -50  76 0 
 75 -76 0 
-76  77 0 
-52  77 0 
-76 -52  78 0 
 77 -78 0 
-78  79 0 
-54  79 0 
-78 -54  80 0 
 79 -80 0 
-80  81 0 
-56  81 0 
-80 -56  82 0 
 81 -82 0 
-82  83 0 
-58  83 0 
-82 -58  84 0 
 83 -84 0 
-84  85 0 
-60  85 0 
-84 -60  86 0 
 85 -86 0 
-86  87 0 
-62  87 0 
-86 -62  88 0 
 87 -88 0 
-88  89 0 
-64  89 0 
-88 -64  90 0 
 89 -90 0 
-90  91 0 
-66  91 0 
-90 -66  92 0 
 91 -92 0 
-92  93 0 
-68  93 0 
-92 -68  94 0 
 93 -94 0 
-94  95 0 
-70  95 0 
-94 -70  96 0 
 95 -96 0 
-96  97 0 
-72  97 0 
-96 -72 0 
-73  98 0 
-75  98 0 
-73 -75  99 0 
 98 -99 0 
-99  100 0 
-77  100 0 
-99 -77  101 0 
 100 -101 0 
-101  102 0 
-79  102 0 
-101 -79  103 0 
 102 -103 0 
-103  104 0 
-81  104 0 
-103 -81  105 0 
 104 -105 0 
-105  106 0 
-83  106 0 
-105 -83  107 0 
 106 -107 0 
-107  108 0 
-85  108 0 
-107 -85  109 0 
 108 -109 0 
-109  110 0 
-87  110 0 
-109 -87  111 0 
 110 -111 0 
-111  112 0 
-89  112 0 
-111 -89  113 0 
 112 -113 0 
-113  114 0 
-91  114 0 
-113 -91  115 0 
 114 -115 0 
-115  116 0 
-93  116 0 
-115 -93  117 0 
 116 -117 0 
-117  118 0 
-95  118 0 
-117 -95  119 0 
 118 -119 0 
-119  120 0 
-97  120 0 
-119 -97 0 
-98  121 0 
-100  121 0 
-98 -100  122 0 
 121 -122 0 
-122  123 0 
-102  123 0 
-122 -102  124 0 
 123 -124 0 
-124  125 0 
-104  125 0 
-124 -104  126 0 
 125 -126 0 
-126  127 0 
-106  127 0 
-126 -106  128 0 
 127 -128 0 
-128  129 0 
-108  129 0 
-128 -108  130 0 
 129 -130 0 
-130  131 0 
-110  131 0 
-130 -110  132 0 
 131 -132 0 
-132  133 0 
-112  133 0 
-132 -112  134 0 
 133 -134 0 
-134  135 0 
-114  135 0 
-134 -114  136 0 
 135 -136 0 
-136  137 0 
-116  137 0 
-136 -116  138 0 
 137 -138 0 
-138  139 0 
-118  139 0 
-138 -118  140 0 
 139 -140 0 
-140  141 0 
-120  141 0 
-140 -120 0 
-121  142 0 
-123  142 0 
-121 -123  143 0 
 142 -143 0 
-143  144 0 
-125  144 0 
-143 -125  145 0 
 144 -145 0 
-145  146 0 
-127  146 0 
-145 -127  147 0 
 146 -147 0 
-147  148 0 
-129  148 0 
-147 -129  149 0 
 148 -149 0 
-149  150 0 
-131  150 0 
-149 -131  151 0 
 150 -151 0 
-151  152 0 
-133  152 0 
-151 -133  153 0 
 152 -153 0 
-153  154 0 
-135  154 0 
-153 -135  155 0 
 154 -155 0 
-155  156 0 
-137  156 0 
-155 -137  157 0 
 156 -157 0 
-157  158 0 
-139  158 0 
-157 -139  159 0 
 158 -159 0 
-159  160 0 
-141  160 0 
-159 -141 0 
-142  161 0 
-144  161 0 
-142 -144  162 0 
 161 -162 0 
-162  163 0 
-146  163 0 
-162 -146  164 0 
 163 -164 0 
-164  165 0 
-148  165 0 
-164 -148  166 0 
 165 -166 0 
-166  167 0 
-150  167 0 
-166 -150  168 0 
 167 -168 0 
-168  169 0 
-152  169 0 
-168 -152  170 0 
 169 -170 0 
-170  171 0 
-154  171 0 
-170 -154  172 0 
 171 -172 0 
-172  173 0 
-156  173 0 
-172 -156  174 0 
 173 -174 0 
-174  175 0 
-158  175 0 
-174 -158  176 0 
 175 -176 0 
-176  177 0 
-160  177 0 
-176 -160 0 
-161 -163  178 0 
 179 -178 0 
-178 -165  180 0 
 179 -180 0 
-180 -167  181 0 
 179 -181 0 
-181 -169  182 0 
 179 -182 0 
-182 -171  183 0 
 179 -183 0 
-183 -173  184 0 
 179 -184 0 
-184 -175  185 0 
 179 -185 0 
-185 -177 0 
 1  3 -186 0 
 1 -187 0 
 3 -187 0 
 186 -187 0 
 187  6 -188 0 
 187 -189 0 
 6 -189 0 
 188 -189 0 
 189  9 -190 0 
 189 -191 0 
 9 -191 0 
 190 -191 0 
 191  12 -192 0 
 191 -193 0 
 12 -193 0 
 192 -193 0 
 193  15 -194 0 
 193 -195 0 
 15 -195 0 
 194 -195 0 
 195  18 -196 0 
 195 -197 0 
 18 -197 0 
 196 -197 0 
 197  21 -198 0 
 197 -199 0 
 21 -199 0 
 198 -199 0 
 199  24 -200 0 
 199 -201 0 
 24 -201 0 
 200 -201 0 
 201  27 -202 0 
 201 -203 0 
 27 -203 0 
 202 -203 0 
 203  30 -204 0 
 203 -205 0 
 30 -205 0 
 204 -205 0 
 205  33 -206 0 
 205 -207 0 
 33 -207 0 
 206 -207 0 
 207  36 -208 0 
 207 -209 0 
 36 -209 0 
 208 -209 0 
 209  39 -210 0 
 209 -211 0 
 39 -211 0 
 210 -211 0 
 211  42 -212 0 
 211 -213 0 
 42 -213 0 
 212 -213 0 
 213  45 -214 0 
 186  188 -215 0 
 186 -216 0 
 188 -216 0 
 215 -216 0 
 216  190 -217 0 
 216 -218 0 
 190 -218 0 
 217 -218 0 
 218  192 -219 0 
 218 -220 0 
 192 -220 0 
 219 -220 0 
 220  194 -221 0 
 220 -222 0 
 194 -222 0 
 221 -222 0 
 222  196 -223 0 
 222 -224 0 
 196 -224 0 
 223 -224 0 
 224  198 -225 0 
 224 -226 0 
 198 -226 0 
 225 -226 0 
 226  200 -227 0 
 226 -228 0 
 200 -228 0 
 227 -228 0 
 228  202 -229 0 
 228 -230 0 
 202 -230 0 
 229 -230 0 
 230  204 -231 0 
 230 -232 0 
 204 -232 0 
 231 -232 0 
 232  206 -233 0 
 232 -234 0 
 206 -234 0 
 233 -234 0 
 234  208 -235 0 
 234 -236 0 
 208 -236 0 
 235 -236 0 
 236  210 -237 0 
 236 -238 0 
 210 -238 0 
 237 -238 0 
 238  212 -239 0 
 238 -240 0 
 212 -240 0 
 239 -240 0 
 240  214 -241 0 
 215  217 -242 0 
 215 -243 0 
 217 -243 0 
 242 -243 0 
 243  219 -244 0 
 243 -245 0 
 219 -245 0 
 244 -245 0 
 245  221 -246 0 
 245 -247 0 
 221 -247 0 
 246 -247 0 
 247  223 -248 0 
 247 -249 0 
 223 -249 0 
 248 -249 0 
 249  225 -250 0 
 249 -251 0 
 225 -251 0 
 250 -251 0 
 251  227 -252 0 
 251 -253 0 
 227 -253 0 
 252 -253 0 
 253  229 -254 0 
 253 -255 0 
 229 -255 0 
 254 -255 0 
 255  231 -256 0 
 255 -257 0 
 231 -257 0 
 256 -257 0 
 257  233 -258 0 
 257 -259 0 
 233 -259 0 
 258 -259 0 
 259  235 -260 0 
 259 -261 0 
 235 -261 0 
 260 -261 0 
 261  237 -262 0 
 261 -263 0 
 237 -263 0 
 262 -263 0 
 263  239 -264 0 
 263 -265 0 
 239 -265 0 
 264 -265 0 
 265  241 -266 0 
 242  244 -267 0 
 242 -268 0 
 244 -268 0 
 267 -268 0 
 268  246 -269 0 
 268 -270 0 
 246 -270 0 
 269 -270 0 
 270  248 -271 0 
 270 -272 0 
 248 -272 0 
 271 -272 0 
 272  250 -273 0 
 272 -274 0 
 250 -274 0 
 273 -274 0 
 274  252 -275 0 
 274 -276 0 
 252 -276 0 
 275 -276 0 
 276  254 -277 0 
 276 -278 0 
 254 -278 0 
 277 -278 0 
 278  256 -279 0 
 278 -280 0 
 256 -280 0 
 279 -280 0 
 280  258 -281 0 
 280 -282 0 
 258 -282 0 
 281 -282 0 
 282  260 -283 0 
 282 -284 0 
 260 -284 0 
 283 -284 0 
 284  262 -285 0 
 284 -286 0 
 262 -286 0 
 285 -286 0 
 286  264 -287 0 
 286 -288 0 
 264 -288 0 
 287 -288 0 
 288  266 -289 0 
 267  269 -290 0 
 267 -291 0 
 269 -291 0 
 290 -291 0 
 291  271 -292 0 
 291 -293 0 
 271 -293 0 
 292 -293 0 
 293  273 -294 0 
 293 -295 0 
 273 -295 0 
 294 -295 0 
 295  275 -296 0 
 295 -297 0 
 275 -297 0 
 296 -297 0 
 297  277 -298 0 
 297 -299 0 
 277 -299 0 
 298 -299 0 
 299  279 -300 0 
 299 -301 0 
 279 -301 0 
 300 -301 0 
 301  281 -302 0 
 301 -303 0 
 281 -303 0 
 302 -303 0 
 303  283 -304 0 
 303 -305 0 
 283 -305 0 
 304 -305 0 
 305  285 -306 0 
 305 -307 0 
 285 -307 0 
 306 -307 0 
 307  287 -308 0 
 307 -309 0 
 287 -309 0 
 308 -309 0 
 309  289 -310 0 
 290  292 -311 0 
 290 -312 0 
 292 -312 0 
 311 -312 0 
 312  294 -313 0 
 312 -314 0 
 294 -314 0 
 313 -314 0 
 314  296 -315 0 
 314 -316 0 
 296 -316 0 
 315 -316 0 
 316  298 -317 0 
 316 -318 0 
 298 -318 0 
 317 -318 0 
 318  300 -319 0 
 318 -320 0 
 300 -320 0 
 319 -320 0 
 320  302 -321 0 
 320 -322 0 
 302 -322 0 
 321 -322 0 
 322  304 -323 0 
 322 -324 0 
 304 -324 0 
 323 -324 0 
 324  306 -325 0 
 324 -326 0 
 306 -326 0 
 325 -326 0 
 326  308 -327 0 
 326 -328 0 
 308 -328 0 
 327 -328 0 
 328  310 -329 0 
 311  313 0 
 311 -330 0 
 313 -330 0 
 331 -330 0 
 330  315 0 
 330 -332 0 
 315 -332 0 
 331 -332 0 
 332  317 0 
 332 -333 0 
 317 -333 0 
 331 -333 0 
 333  319 0 
 333 -334 0 
 319 -334 0 
 331 -334 0 
 334  321 0 
 334 -335 0 
 321 -335 0 
 331 -335 0 
 335  323 0 
 335 -336 0 
 323 -336 0 
 331 -336 0 
 336  325 0 
 336 -337 0 
 325 -337 0 
 331 -337 0 
 337  327 0 
 337 -338 0 
 327 -338 0 
 331 -338 0 
 338  329 0 
